mlkem-native/cvc5/poly_tobytes_native_aarch64_harness.smt2
; SMT 2
; Generated for CVC 5
(set-info :source "Generated by CBMC 6.8.0 (n/a)")
(set-logic ALL)

; find_symbols
(declare-fun |__CPROVER_contracts_is_fresh::$tmp::return_value___VERIFIER_nondet___CPROVER_bool$1!0@1#2| () Bool)
; convert
; Converting var_no 0 with expr ID of symbol
(define-fun B0 () Bool |__CPROVER_contracts_is_fresh::$tmp::return_value___VERIFIER_nondet___CPROVER_bool$1!0@1#2|)

; convert
; Converting var_no 1 with expr ID of symbol
(define-fun B1 () Bool |__CPROVER_contracts_is_fresh::$tmp::return_value___VERIFIER_nondet___CPROVER_bool$1!0@1#2|)

; convert
; Converting var_no 2 with expr ID of symbol
(define-fun B2 () Bool |__CPROVER_contracts_is_fresh::$tmp::return_value___VERIFIER_nondet___CPROVER_bool$1!0@1#2|)

; convert
; Converting var_no 3 with expr ID of symbol
(define-fun B3 () Bool |__CPROVER_contracts_is_fresh::$tmp::return_value___VERIFIER_nondet___CPROVER_bool$1!0@1#2|)

; find_symbols
(declare-fun |__CPROVER_contracts_is_fresh::$tmp::return_value___VERIFIER_nondet___CPROVER_bool$1!0@2#2| () Bool)
; convert
; Converting var_no 4 with expr ID of symbol
(define-fun B4 () Bool |__CPROVER_contracts_is_fresh::$tmp::return_value___VERIFIER_nondet___CPROVER_bool$1!0@2#2|)

; convert
; Converting var_no 5 with expr ID of symbol
(define-fun B5 () Bool |__CPROVER_contracts_is_fresh::$tmp::return_value___VERIFIER_nondet___CPROVER_bool$1!0@2#2|)

; convert
; Converting var_no 6 with expr ID of symbol
(define-fun B6 () Bool |__CPROVER_contracts_is_fresh::$tmp::return_value___VERIFIER_nondet___CPROVER_bool$1!0@2#2|)

; convert
; Converting var_no 7 with expr ID of symbol
(define-fun B7 () Bool |__CPROVER_contracts_is_fresh::$tmp::return_value___VERIFIER_nondet___CPROVER_bool$1!0@2#2|)

; find_symbols
(declare-fun |nondet_symex::nondet4| () (Array (_ BitVec 64) (_ BitVec 16)))
; set_to true (equal)
(define-fun |symex_dynamic::dynamic_object$10#1| () (Array (_ BitVec 64) (_ BitVec 16)) |nondet_symex::nondet4|)

; find_symbols
(declare-fun |mlk_poly_tobytes_native::requires::1::_cbmc_idx12!0@1#1| () (_ BitVec 32))
; convert
; Converting var_no 8 with expr ID of =
(define-fun B8 () Bool (= |mlk_poly_tobytes_native::requires::1::_cbmc_idx12!0@1#1| |mlk_poly_tobytes_native::requires::1::_cbmc_idx12!0@1#1|))

; convert
; Converting var_no 9 with expr ID of =
(define-fun B9 () Bool (= |mlk_poly_tobytes_native::requires::1::_cbmc_idx12!0@1#1| |mlk_poly_tobytes_native::requires::1::_cbmc_idx12!0@1#1|))

; find_symbols
(declare-fun |mlk_poly_tobytes_asm::requires::1::_cbmc_idx20!0@1#1| () (_ BitVec 32))
; convert
; Converting var_no 10 with expr ID of =
(define-fun B10 () Bool (= |mlk_poly_tobytes_asm::requires::1::_cbmc_idx20!0@1#1| |mlk_poly_tobytes_asm::requires::1::_cbmc_idx20!0@1#1|))

; convert
; Converting var_no 11 with expr ID of =
(define-fun B11 () Bool (= |mlk_poly_tobytes_asm::requires::1::_cbmc_idx20!0@1#1| |mlk_poly_tobytes_asm::requires::1::_cbmc_idx20!0@1#1|))

; convert
; Converting var_no 12 with expr ID of forall
(declare-fun B12 () Bool)
(assert (= B12 (forall ((|mlk_poly_tobytes_native::requires::1::_cbmc_idx12!0@18#0| (_ BitVec 32))) (or (bvuge |mlk_poly_tobytes_native::requires::1::_cbmc_idx12!0@18#0| (_ bv256 32)) (and (bvsge ((_ sign_extend 16) (select |symex_dynamic::dynamic_object$10#1| ((_ zero_extend 32) |mlk_poly_tobytes_native::requires::1::_cbmc_idx12!0@18#0|))) (_ bv0 32)) (not (bvsge ((_ sign_extend 16) (select |symex_dynamic::dynamic_object$10#1| ((_ zero_extend 32) |mlk_poly_tobytes_native::requires::1::_cbmc_idx12!0@18#0|))) (_ bv3329 32))))))))

; convert
; Converting var_no 13 with expr ID of not
(define-fun B13 () Bool (not |__CPROVER_contracts_is_fresh::$tmp::return_value___VERIFIER_nondet___CPROVER_bool$1!0@1#2|))

; convert
; Converting var_no 14 with expr ID of not
(define-fun B14 () Bool (not |__CPROVER_contracts_is_fresh::$tmp::return_value___VERIFIER_nondet___CPROVER_bool$1!0@2#2|))

; find_symbols
(declare-fun |symex::args::0| () (_ BitVec 64))
; set_to true (equal)
(define-fun |harness::1::r!0@1#1| () (_ BitVec 64) |symex::args::0|)

; find_symbols
(declare-fun |symex::args::1| () (_ BitVec 64))
; set_to true (equal)
(define-fun |harness::1::a!0@1#1| () (_ BitVec 64) |symex::args::1|)

(declare-datatypes ((struct.2 0)) (((mk-struct.2 (struct.2.is_writable (_ BitVec 8)) (struct.2.$pad1 (_ BitVec 56)) (struct.2.size (_ BitVec 64)) (struct.2.lb (_ BitVec 64)) (struct.2.ub (_ BitVec 64)) ))))
(define-fun update-struct.2.is_writable ((s struct.2) (v (_ BitVec 8))) struct.2 (mk-struct.2 v (struct.2.$pad1 s) (struct.2.size s) (struct.2.lb s) (struct.2.ub s) ))
(define-fun update-struct.2.$pad1 ((s struct.2) (v (_ BitVec 56))) struct.2 (mk-struct.2 (struct.2.is_writable s) v (struct.2.size s) (struct.2.lb s) (struct.2.ub s) ))
(define-fun update-struct.2.size ((s struct.2) (v (_ BitVec 64))) struct.2 (mk-struct.2 (struct.2.is_writable s) (struct.2.$pad1 s) v (struct.2.lb s) (struct.2.ub s) ))
(define-fun update-struct.2.lb ((s struct.2) (v (_ BitVec 64))) struct.2 (mk-struct.2 (struct.2.is_writable s) (struct.2.$pad1 s) (struct.2.size s) v (struct.2.ub s) ))
(define-fun update-struct.2.ub ((s struct.2) (v (_ BitVec 64))) struct.2 (mk-struct.2 (struct.2.is_writable s) (struct.2.$pad1 s) (struct.2.size s) (struct.2.lb s) v ))

(declare-datatypes ((struct.1 0)) (((mk-struct.1 (struct.1.max_elems (_ BitVec 64)) (struct.1.elems (_ BitVec 64)) ))))
(define-fun update-struct.1.max_elems ((s struct.1) (v (_ BitVec 64))) struct.1 (mk-struct.1 v (struct.1.elems s) ))
(define-fun update-struct.1.elems ((s struct.1) (v (_ BitVec 64))) struct.1 (mk-struct.1 (struct.1.max_elems s) v ))

(declare-datatypes ((struct.5 0)) (((mk-struct.5 (struct.5.max_elems (_ BitVec 64)) (struct.5.watermark (_ BitVec 64)) (struct.5.nof_elems (_ BitVec 64)) (struct.5.is_empty (_ BitVec 8)) (struct.5.indexed_by_object_id (_ BitVec 8)) (struct.5.$pad5 (_ BitVec 48)) (struct.5.elems (_ BitVec 64)) ))))
(define-fun update-struct.5.max_elems ((s struct.5) (v (_ BitVec 64))) struct.5 (mk-struct.5 v (struct.5.watermark s) (struct.5.nof_elems s) (struct.5.is_empty s) (struct.5.indexed_by_object_id s) (struct.5.$pad5 s) (struct.5.elems s) ))
(define-fun update-struct.5.watermark ((s struct.5) (v (_ BitVec 64))) struct.5 (mk-struct.5 (struct.5.max_elems s) v (struct.5.nof_elems s) (struct.5.is_empty s) (struct.5.indexed_by_object_id s) (struct.5.$pad5 s) (struct.5.elems s) ))
(define-fun update-struct.5.nof_elems ((s struct.5) (v (_ BitVec 64))) struct.5 (mk-struct.5 (struct.5.max_elems s) (struct.5.watermark s) v (struct.5.is_empty s) (struct.5.indexed_by_object_id s) (struct.5.$pad5 s) (struct.5.elems s) ))
(define-fun update-struct.5.is_empty ((s struct.5) (v (_ BitVec 8))) struct.5 (mk-struct.5 (struct.5.max_elems s) (struct.5.watermark s) (struct.5.nof_elems s) v (struct.5.indexed_by_object_id s) (struct.5.$pad5 s) (struct.5.elems s) ))
(define-fun update-struct.5.indexed_by_object_id ((s struct.5) (v (_ BitVec 8))) struct.5 (mk-struct.5 (struct.5.max_elems s) (struct.5.watermark s) (struct.5.nof_elems s) (struct.5.is_empty s) v (struct.5.$pad5 s) (struct.5.elems s) ))
(define-fun update-struct.5.$pad5 ((s struct.5) (v (_ BitVec 48))) struct.5 (mk-struct.5 (struct.5.max_elems s) (struct.5.watermark s) (struct.5.nof_elems s) (struct.5.is_empty s) (struct.5.indexed_by_object_id s) v (struct.5.elems s) ))
(define-fun update-struct.5.elems ((s struct.5) (v (_ BitVec 64))) struct.5 (mk-struct.5 (struct.5.max_elems s) (struct.5.watermark s) (struct.5.nof_elems s) (struct.5.is_empty s) (struct.5.indexed_by_object_id s) (struct.5.$pad5 s) v ))

(declare-datatypes ((struct.7 0)) (((mk-struct.7 (struct.7.fresh_car struct.2) (struct.7.ptr_pred (_ BitVec 64)) ))))
(define-fun update-struct.7.fresh_car ((s struct.7) (v struct.2)) struct.7 (mk-struct.7 v (struct.7.ptr_pred s) ))
(define-fun update-struct.7.ptr_pred ((s struct.7) (v (_ BitVec 64))) struct.7 (mk-struct.7 (struct.7.fresh_car s) v ))

(declare-datatypes ((struct.0 0)) (((mk-struct.0 (struct.0.contract_assigns struct.1) (struct.0.contract_frees struct.5) (struct.0.contract_frees_append struct.5) (struct.0.allocated struct.5) (struct.0.deallocated struct.5) (struct.0.linked_ptr_pred_ctx (_ BitVec 64)) (struct.0.linked_allocated (_ BitVec 64)) (struct.0.linked_deallocated (_ BitVec 64)) (struct.0.assume_requires_ctx (_ BitVec 8)) (struct.0.assert_requires_ctx (_ BitVec 8)) (struct.0.assume_ensures_ctx (_ BitVec 8)) (struct.0.assert_ensures_ctx (_ BitVec 8)) (struct.0.allow_allocate (_ BitVec 8)) (struct.0.allow_deallocate (_ BitVec 8)) (struct.0.$pad14 (_ BitVec 16)) ))))
(define-fun update-struct.0.contract_assigns ((s struct.0) (v struct.1)) struct.0 (mk-struct.0 v (struct.0.contract_frees s) (struct.0.contract_frees_append s) (struct.0.allocated s) (struct.0.deallocated s) (struct.0.linked_ptr_pred_ctx s) (struct.0.linked_allocated s) (struct.0.linked_deallocated s) (struct.0.assume_requires_ctx s) (struct.0.assert_requires_ctx s) (struct.0.assume_ensures_ctx s) (struct.0.assert_ensures_ctx s) (struct.0.allow_allocate s) (struct.0.allow_deallocate s) (struct.0.$pad14 s) ))
(define-fun update-struct.0.contract_frees ((s struct.0) (v struct.5)) struct.0 (mk-struct.0 (struct.0.contract_assigns s) v (struct.0.contract_frees_append s) (struct.0.allocated s) (struct.0.deallocated s) (struct.0.linked_ptr_pred_ctx s) (struct.0.linked_allocated s) (struct.0.linked_deallocated s) (struct.0.assume_requires_ctx s) (struct.0.assert_requires_ctx s) (struct.0.assume_ensures_ctx s) (struct.0.assert_ensures_ctx s) (struct.0.allow_allocate s) (struct.0.allow_deallocate s) (struct.0.$pad14 s) ))
(define-fun update-struct.0.contract_frees_append ((s struct.0) (v struct.5)) struct.0 (mk-struct.0 (struct.0.contract_assigns s) (struct.0.contract_frees s) v (struct.0.allocated s) (struct.0.deallocated s) (struct.0.linked_ptr_pred_ctx s) (struct.0.linked_allocated s) (struct.0.linked_deallocated s) (struct.0.assume_requires_ctx s) (struct.0.assert_requires_ctx s) (struct.0.assume_ensures_ctx s) (struct.0.assert_ensures_ctx s) (struct.0.allow_allocate s) (struct.0.allow_deallocate s) (struct.0.$pad14 s) ))
(define-fun update-struct.0.allocated ((s struct.0) (v struct.5)) struct.0 (mk-struct.0 (struct.0.contract_assigns s) (struct.0.contract_frees s) (struct.0.contract_frees_append s) v (struct.0.deallocated s) (struct.0.linked_ptr_pred_ctx s) (struct.0.linked_allocated s) (struct.0.linked_deallocated s) (struct.0.assume_requires_ctx s) (struct.0.assert_requires_ctx s) (struct.0.assume_ensures_ctx s) (struct.0.assert_ensures_ctx s) (struct.0.allow_allocate s) (struct.0.allow_deallocate s) (struct.0.$pad14 s) ))
(define-fun update-struct.0.deallocated ((s struct.0) (v struct.5)) struct.0 (mk-struct.0 (struct.0.contract_assigns s) (struct.0.contract_frees s) (struct.0.contract_frees_append s) (struct.0.allocated s) v (struct.0.linked_ptr_pred_ctx s) (struct.0.linked_allocated s) (struct.0.linked_deallocated s) (struct.0.assume_requires_ctx s) (struct.0.assert_requires_ctx s) (struct.0.assume_ensures_ctx s) (struct.0.assert_ensures_ctx s) (struct.0.allow_allocate s) (struct.0.allow_deallocate s) (struct.0.$pad14 s) ))
(define-fun update-struct.0.linked_ptr_pred_ctx ((s struct.0) (v (_ BitVec 64))) struct.0 (mk-struct.0 (struct.0.contract_assigns s) (struct.0.contract_frees s) (struct.0.contract_frees_append s) (struct.0.allocated s) (struct.0.deallocated s) v (struct.0.linked_allocated s) (struct.0.linked_deallocated s) (struct.0.assume_requires_ctx s) (struct.0.assert_requires_ctx s) (struct.0.assume_ensures_ctx s) (struct.0.assert_ensures_ctx s) (struct.0.allow_allocate s) (struct.0.allow_deallocate s) (struct.0.$pad14 s) ))
(define-fun update-struct.0.linked_allocated ((s struct.0) (v (_ BitVec 64))) struct.0 (mk-struct.0 (struct.0.contract_assigns s) (struct.0.contract_frees s) (struct.0.contract_frees_append s) (struct.0.allocated s) (struct.0.deallocated s) (struct.0.linked_ptr_pred_ctx s) v (struct.0.linked_deallocated s) (struct.0.assume_requires_ctx s) (struct.0.assert_requires_ctx s) (struct.0.assume_ensures_ctx s) (struct.0.assert_ensures_ctx s) (struct.0.allow_allocate s) (struct.0.allow_deallocate s) (struct.0.$pad14 s) ))
(define-fun update-struct.0.linked_deallocated ((s struct.0) (v (_ BitVec 64))) struct.0 (mk-struct.0 (struct.0.contract_assigns s) (struct.0.contract_frees s) (struct.0.contract_frees_append s) (struct.0.allocated s) (struct.0.deallocated s) (struct.0.linked_ptr_pred_ctx s) (struct.0.linked_allocated s) v (struct.0.assume_requires_ctx s) (struct.0.assert_requires_ctx s) (struct.0.assume_ensures_ctx s) (struct.0.assert_ensures_ctx s) (struct.0.allow_allocate s) (struct.0.allow_deallocate s) (struct.0.$pad14 s) ))
(define-fun update-struct.0.assume_requires_ctx ((s struct.0) (v (_ BitVec 8))) struct.0 (mk-struct.0 (struct.0.contract_assigns s) (struct.0.contract_frees s) (struct.0.contract_frees_append s) (struct.0.allocated s) (struct.0.deallocated s) (struct.0.linked_ptr_pred_ctx s) (struct.0.linked_allocated s) (struct.0.linked_deallocated s) v (struct.0.assert_requires_ctx s) (struct.0.assume_ensures_ctx s) (struct.0.assert_ensures_ctx s) (struct.0.allow_allocate s) (struct.0.allow_deallocate s) (struct.0.$pad14 s) ))
(define-fun update-struct.0.assert_requires_ctx ((s struct.0) (v (_ BitVec 8))) struct.0 (mk-struct.0 (struct.0.contract_assigns s) (struct.0.contract_frees s) (struct.0.contract_frees_append s) (struct.0.allocated s) (struct.0.deallocated s) (struct.0.linked_ptr_pred_ctx s) (struct.0.linked_allocated s) (struct.0.linked_deallocated s) (struct.0.assume_requires_ctx s) v (struct.0.assume_ensures_ctx s) (struct.0.assert_ensures_ctx s) (struct.0.allow_allocate s) (struct.0.allow_deallocate s) (struct.0.$pad14 s) ))
(define-fun update-struct.0.assume_ensures_ctx ((s struct.0) (v (_ BitVec 8))) struct.0 (mk-struct.0 (struct.0.contract_assigns s) (struct.0.contract_frees s) (struct.0.contract_frees_append s) (struct.0.allocated s) (struct.0.deallocated s) (struct.0.linked_ptr_pred_ctx s) (struct.0.linked_allocated s) (struct.0.linked_deallocated s) (struct.0.assume_requires_ctx s) (struct.0.assert_requires_ctx s) v (struct.0.assert_ensures_ctx s) (struct.0.allow_allocate s) (struct.0.allow_deallocate s) (struct.0.$pad14 s) ))
(define-fun update-struct.0.assert_ensures_ctx ((s struct.0) (v (_ BitVec 8))) struct.0 (mk-struct.0 (struct.0.contract_assigns s) (struct.0.contract_frees s) (struct.0.contract_frees_append s) (struct.0.allocated s) (struct.0.deallocated s) (struct.0.linked_ptr_pred_ctx s) (struct.0.linked_allocated s) (struct.0.linked_deallocated s) (struct.0.assume_requires_ctx s) (struct.0.assert_requires_ctx s) (struct.0.assume_ensures_ctx s) v (struct.0.allow_allocate s) (struct.0.allow_deallocate s) (struct.0.$pad14 s) ))
(define-fun update-struct.0.allow_allocate ((s struct.0) (v (_ BitVec 8))) struct.0 (mk-struct.0 (struct.0.contract_assigns s) (struct.0.contract_frees s) (struct.0.contract_frees_append s) (struct.0.allocated s) (struct.0.deallocated s) (struct.0.linked_ptr_pred_ctx s) (struct.0.linked_allocated s) (struct.0.linked_deallocated s) (struct.0.assume_requires_ctx s) (struct.0.assert_requires_ctx s) (struct.0.assume_ensures_ctx s) (struct.0.assert_ensures_ctx s) v (struct.0.allow_deallocate s) (struct.0.$pad14 s) ))
(define-fun update-struct.0.allow_deallocate ((s struct.0) (v (_ BitVec 8))) struct.0 (mk-struct.0 (struct.0.contract_assigns s) (struct.0.contract_frees s) (struct.0.contract_frees_append s) (struct.0.allocated s) (struct.0.deallocated s) (struct.0.linked_ptr_pred_ctx s) (struct.0.linked_allocated s) (struct.0.linked_deallocated s) (struct.0.assume_requires_ctx s) (struct.0.assert_requires_ctx s) (struct.0.assume_ensures_ctx s) (struct.0.assert_ensures_ctx s) (struct.0.allow_allocate s) v (struct.0.$pad14 s) ))
(define-fun update-struct.0.$pad14 ((s struct.0) (v (_ BitVec 16))) struct.0 (mk-struct.0 (struct.0.contract_assigns s) (struct.0.contract_frees s) (struct.0.contract_frees_append s) (struct.0.allocated s) (struct.0.deallocated s) (struct.0.linked_ptr_pred_ctx s) (struct.0.linked_allocated s) (struct.0.linked_deallocated s) (struct.0.assume_requires_ctx s) (struct.0.assert_requires_ctx s) (struct.0.assume_ensures_ctx s) (struct.0.assert_ensures_ctx s) (struct.0.allow_allocate s) (struct.0.allow_deallocate s) v ))

; find_symbols
(declare-fun |mlk_poly_tobytes_native::__requires_write_set!0@1| () struct.0)
; find_symbols
(declare-fun |symex::args::2| () (_ BitVec 64))
; set_to true
(assert (= (concat (_ bv2 8) (_ bv0 56)) |symex::args::2|))

; find_symbols
(declare-fun |mlk_poly_tobytes_native::__ensures_write_set!0@1| () struct.0)
; find_symbols
(declare-fun |symex::args::3| () (_ BitVec 64))
; set_to true
(assert (= (concat (_ bv3 8) (_ bv0 56)) |symex::args::3|))

; find_symbols
(declare-fun |mlk_poly_tobytes_native::__ptr_pred_ctx!0@1| () struct.7)
; find_symbols
(declare-fun |symex::args::4| () (_ BitVec 64))
; set_to true
(assert (= (concat (_ bv4 8) (_ bv0 56)) |symex::args::4|))

; find_symbols
(declare-fun |symex::args::5| () (_ BitVec 64))
; set_to true
(assert (= (concat (_ bv2 8) (_ bv0 56)) |symex::args::5|))

; find_symbols
(declare-fun |symex::args::6| () (_ BitVec 64))
; set_to true
(assert (= (concat (_ bv4 8) (_ bv0 56)) |symex::args::6|))

; find_symbols
(declare-fun |symex::args::7| () (_ BitVec 64))
; set_to true
(assert (= (concat (_ bv3 8) (_ bv0 56)) |symex::args::7|))

; find_symbols
(declare-fun |symex::args::8| () (_ BitVec 64))
; set_to true
(assert (= (concat (_ bv4 8) (_ bv0 56)) |symex::args::8|))

; find_symbols
(declare-fun |mlk_poly_tobytes_native::r_wrapper!0@1| () (_ BitVec 64))
; find_symbols
(declare-fun |symex::args::9| () (_ BitVec 64))
; set_to true
(assert (= (concat (_ bv5 8) (_ bv0 56)) |symex::args::9|))

; find_symbols
(declare-fun |symex::args::10| () (_ BitVec 64))
; set_to true
(assert (= (concat (_ bv2 8) (_ bv0 56)) |symex::args::10|))

; find_symbols
(declare-fun |symex_dynamic::dynamic_object$9| () (Array (_ BitVec 64) (_ BitVec 8)))
; find_symbols
(declare-fun |symex::args::11| () (_ BitVec 64))
; set_to true
(assert (= (concat (_ bv6 8) (_ bv0 56)) |symex::args::11|))

; find_symbols
(declare-fun |mlk_poly_tobytes_native::a_wrapper!0@1| () (_ BitVec 64))
; find_symbols
(declare-fun |symex::args::12| () (_ BitVec 64))
; set_to true
(assert (= (concat (_ bv7 8) (_ bv0 56)) |symex::args::12|))

; find_symbols
(declare-fun |symex::args::13| () (_ BitVec 64))
; set_to true
(assert (= (concat (_ bv2 8) (_ bv0 56)) |symex::args::13|))

; find_symbols
(declare-fun |symex_dynamic::dynamic_object$10| () (Array (_ BitVec 64) (_ BitVec 16)))
; find_symbols
(declare-fun |symex::args::14| () (_ BitVec 64))
; set_to true
(assert (= (concat (_ bv8 8) (_ bv0 56)) |symex::args::14|))

; find_symbols
(declare-fun |mlk_poly_tobytes_native::__contract_write_set!0@1| () struct.0)
; find_symbols
(declare-fun |symex::args::15| () (_ BitVec 64))
; set_to true
(assert (= (concat (_ bv9 8) (_ bv0 56)) |symex::args::15|))

; find_symbols
(declare-fun |symex::args::16| () (_ BitVec 64))
; set_to true
(assert (= (concat (_ bv6 8) (_ bv0 56)) |symex::args::16|))

; find_symbols
(declare-fun |symex::args::17| () (_ BitVec 64))
; set_to true
(assert (= (concat (_ bv8 8) (_ bv0 56)) |symex::args::17|))

; find_symbols
(declare-fun |symex::args::18| () (_ BitVec 64))
; set_to true
(assert (= (concat (_ bv9 8) (_ bv0 56)) |symex::args::18|))

; find_symbols
(declare-fun |symex::args::19| () (_ BitVec 64))
; set_to true
(assert (= (concat (_ bv2 8) (_ bv0 56)) |symex::args::19|))

; find_symbols
(declare-fun |symex::args::20| () (_ BitVec 64))
; set_to true
(assert (= (concat (_ bv9 8) (_ bv0 56)) |symex::args::20|))

; find_symbols
(declare-fun |symex::args::21| () (_ BitVec 64))
; set_to true
(assert (= (concat (_ bv6 8) (_ bv0 56)) |symex::args::21|))

; find_symbols
(declare-fun |symex::args::22| () (_ BitVec 64))
; set_to true
(assert (= (concat (_ bv6 8) (_ bv0 56)) |symex::args::22|))

; find_symbols
(declare-fun |symex::args::23| () (_ BitVec 64))
; set_to true
(assert (= (concat (_ bv8 8) (_ bv0 56)) |symex::args::23|))

; find_symbols
(declare-fun |symex::args::24| () (_ BitVec 64))
; set_to true
(assert (= (concat (_ bv9 8) (_ bv0 56)) |symex::args::24|))

; find_symbols
(declare-fun |symex::args::25| () (_ BitVec 64))
; set_to true
(assert (= (concat (_ bv2 8) (_ bv0 56)) |symex::args::25|))

; find_symbols
(declare-fun |symex::args::26| () (_ BitVec 64))
; set_to true
(assert (= (concat (_ bv6 8) (_ bv0 56)) |symex::args::26|))

; find_symbols
(declare-fun |symex::args::27| () (_ BitVec 64))
; set_to true
(assert (= (concat (_ bv8 8) (_ bv0 56)) |symex::args::27|))

; find_symbols
(declare-fun |symex::args::28| () (_ BitVec 64))
; set_to true
(assert (= (concat (_ bv9 8) (_ bv0 56)) |symex::args::28|))

; find_symbols
(declare-fun |symex::args::29| () (_ BitVec 64))
; set_to true
(assert (= (concat (_ bv6 8) (_ bv0 56)) |symex::args::29|))

; find_symbols
(declare-fun |symex::args::30| () (_ BitVec 64))
; set_to true
(assert (= (concat (_ bv8 8) (_ bv0 56)) |symex::args::30|))

; find_symbols
(declare-fun |symex::args::31| () (_ BitVec 64))
; set_to true
(assert (= (concat (_ bv9 8) (_ bv0 56)) |symex::args::31|))

; find_symbols
(declare-fun |mlk_poly_tobytes_asm::__requires_write_set!0@1| () struct.0)
; find_symbols
(declare-fun |symex::args::32| () (_ BitVec 64))
; set_to true
(assert (= (concat (_ bv10 8) (_ bv0 56)) |symex::args::32|))

; find_symbols
(declare-fun |mlk_poly_tobytes_asm::__ensures_write_set!0@1| () struct.0)
; find_symbols
(declare-fun |symex::args::33| () (_ BitVec 64))
; set_to true
(assert (= (concat (_ bv11 8) (_ bv0 56)) |symex::args::33|))

; find_symbols
(declare-fun |mlk_poly_tobytes_asm::__ptr_pred_ctx!0@1| () struct.7)
; find_symbols
(declare-fun |symex::args::34| () (_ BitVec 64))
; set_to true
(assert (= (concat (_ bv12 8) (_ bv0 56)) |symex::args::34|))

; find_symbols
(declare-fun |symex::args::35| () (_ BitVec 64))
; set_to true
(assert (= (concat (_ bv10 8) (_ bv0 56)) |symex::args::35|))

; find_symbols
(declare-fun |symex::args::36| () (_ BitVec 64))
; set_to true
(assert (= (concat (_ bv12 8) (_ bv0 56)) |symex::args::36|))

; find_symbols
(declare-fun |symex::args::37| () (_ BitVec 64))
; set_to true
(assert (= (concat (_ bv11 8) (_ bv0 56)) |symex::args::37|))

; find_symbols
(declare-fun |symex::args::38| () (_ BitVec 64))
; set_to true
(assert (= (concat (_ bv12 8) (_ bv0 56)) |symex::args::38|))

; find_symbols
(declare-fun |mlk_poly_tobytes_asm::r_wrapper!0@1| () (_ BitVec 64))
; find_symbols
(declare-fun |symex::args::39| () (_ BitVec 64))
; set_to true
(assert (= (concat (_ bv13 8) (_ bv0 56)) |symex::args::39|))

; find_symbols
(declare-fun |symex::args::40| () (_ BitVec 64))
; set_to true
(assert (= (concat (_ bv10 8) (_ bv0 56)) |symex::args::40|))

; find_symbols
(declare-fun |symex::args::41| () (_ BitVec 64))
; set_to true
(assert (= (concat (_ bv6 8) (_ bv0 56)) |symex::args::41|))

; find_symbols
(declare-fun |mlk_poly_tobytes_asm::a_wrapper!0@1| () (_ BitVec 64))
; find_symbols
(declare-fun |symex::args::42| () (_ BitVec 64))
; set_to true
(assert (= (concat (_ bv14 8) (_ bv0 56)) |symex::args::42|))

; find_symbols
(declare-fun |symex::args::43| () (_ BitVec 64))
; set_to true
(assert (= (concat (_ bv10 8) (_ bv0 56)) |symex::args::43|))

; find_symbols
(declare-fun |symex::args::44| () (_ BitVec 64))
; set_to true
(assert (= (concat (_ bv8 8) (_ bv0 56)) |symex::args::44|))

; convert
; Converting var_no 15 with expr ID of =>
(define-fun B15 () Bool (=> true (or (bvuge |mlk_poly_tobytes_native::requires::1::_cbmc_idx12!0@1#1| (_ bv256 32)) (not (let ( (prod (bvmul ((_ sign_extend 64) ((_ zero_extend 32) |mlk_poly_tobytes_native::requires::1::_cbmc_idx12!0@1#1|)) ((_ sign_extend 64) (_ bv2 64))) )) (or (bvsge prod (_ bv9223372036854775808 128)) (bvslt prod (bvneg (_ bv9223372036854775808 128)))))))))

; find_symbols
(declare-fun |mlk_poly_tobytes_native::requires::1::_cbmc_idx12!0@3#0| () (_ BitVec 32))
; convert
; Converting var_no 16 with expr ID of =>
(define-fun B16 () Bool (=> true (or (bvuge |mlk_poly_tobytes_native::requires::1::_cbmc_idx12!0@3#0| (_ bv256 32)) (not (bvuge ((_ zero_extend 1) (bvmul ((_ zero_extend 32) |mlk_poly_tobytes_native::requires::1::_cbmc_idx12!0@3#0|) (_ bv2 64))) (_ bv513 65))))))

; find_symbols
(declare-fun |mlk_poly_tobytes_native::requires::1::_cbmc_idx12!0@7#0| () (_ BitVec 32))
; convert
; Converting var_no 17 with expr ID of =>
(define-fun B17 () Bool (=> true (or (bvuge |mlk_poly_tobytes_native::requires::1::_cbmc_idx12!0@7#0| (_ bv256 32)) (not (bvuge (bvadd ((_ zero_extend 1) (bvmul ((_ zero_extend 32) |mlk_poly_tobytes_native::requires::1::_cbmc_idx12!0@7#0|) (_ bv2 64))) (_ bv2 65)) (_ bv513 65))))))

; find_symbols
(declare-fun |mlk_poly_tobytes_native::requires::1::_cbmc_idx12!0@9#0| () (_ BitVec 32))
; convert
; Converting var_no 18 with expr ID of =>
(define-fun B18 () Bool (=> true (or (bvuge |mlk_poly_tobytes_native::requires::1::_cbmc_idx12!0@9#0| (_ bv256 32)) (not (bvsge ((_ sign_extend 16) (select |symex_dynamic::dynamic_object$10#1| ((_ zero_extend 32) |mlk_poly_tobytes_native::requires::1::_cbmc_idx12!0@9#0|))) (_ bv0 32))) (not (let ( (prod (bvmul ((_ sign_extend 64) ((_ zero_extend 32) |mlk_poly_tobytes_native::requires::1::_cbmc_idx12!0@9#0|)) ((_ sign_extend 64) (_ bv2 64))) )) (or (bvsge prod (_ bv9223372036854775808 128)) (bvslt prod (bvneg (_ bv9223372036854775808 128)))))))))

; find_symbols
(declare-fun |mlk_poly_tobytes_native::requires::1::_cbmc_idx12!0@12#0| () (_ BitVec 32))
; convert
; Converting var_no 19 with expr ID of =>
(define-fun B19 () Bool (=> true (or (bvuge |mlk_poly_tobytes_native::requires::1::_cbmc_idx12!0@12#0| (_ bv256 32)) (not (bvsge ((_ sign_extend 16) (select |symex_dynamic::dynamic_object$10#1| ((_ zero_extend 32) |mlk_poly_tobytes_native::requires::1::_cbmc_idx12!0@12#0|))) (_ bv0 32))) (not (bvuge ((_ zero_extend 1) (bvmul ((_ zero_extend 32) |mlk_poly_tobytes_native::requires::1::_cbmc_idx12!0@12#0|) (_ bv2 64))) (_ bv513 65))))))

; find_symbols
(declare-fun |mlk_poly_tobytes_native::requires::1::_cbmc_idx12!0@16#0| () (_ BitVec 32))
; convert
; Converting var_no 20 with expr ID of =>
(define-fun B20 () Bool (=> true (or (bvuge |mlk_poly_tobytes_native::requires::1::_cbmc_idx12!0@16#0| (_ bv256 32)) (not (bvsge ((_ sign_extend 16) (select |symex_dynamic::dynamic_object$10#1| ((_ zero_extend 32) |mlk_poly_tobytes_native::requires::1::_cbmc_idx12!0@16#0|))) (_ bv0 32))) (not (bvuge (bvadd ((_ zero_extend 1) (bvmul ((_ zero_extend 32) |mlk_poly_tobytes_native::requires::1::_cbmc_idx12!0@16#0|) (_ bv2 64))) (_ bv2 65)) (_ bv513 65))))))

; convert
; Converting var_no 21 with expr ID of =>
(define-fun B21 () Bool (=> (and true B12) (or (bvuge |mlk_poly_tobytes_asm::requires::1::_cbmc_idx20!0@1#1| (_ bv256 32)) (not (let ( (prod (bvmul ((_ sign_extend 64) ((_ zero_extend 32) |mlk_poly_tobytes_asm::requires::1::_cbmc_idx20!0@1#1|)) ((_ sign_extend 64) (_ bv2 64))) )) (or (bvsge prod (_ bv9223372036854775808 128)) (bvslt prod (bvneg (_ bv9223372036854775808 128)))))))))

; find_symbols
(declare-fun |mlk_poly_tobytes_asm::requires::1::_cbmc_idx20!0@3#0| () (_ BitVec 32))
; convert
; Converting var_no 22 with expr ID of =>
(define-fun B22 () Bool (=> (and true B12) (or (bvuge |mlk_poly_tobytes_asm::requires::1::_cbmc_idx20!0@3#0| (_ bv256 32)) (not (bvuge ((_ zero_extend 1) (bvmul ((_ zero_extend 32) |mlk_poly_tobytes_asm::requires::1::_cbmc_idx20!0@3#0|) (_ bv2 64))) (_ bv513 65))))))

; find_symbols
(declare-fun |mlk_poly_tobytes_asm::requires::1::_cbmc_idx20!0@7#0| () (_ BitVec 32))
; convert
; Converting var_no 23 with expr ID of =>
(define-fun B23 () Bool (=> (and true B12) (or (bvuge |mlk_poly_tobytes_asm::requires::1::_cbmc_idx20!0@7#0| (_ bv256 32)) (not (bvuge (bvadd ((_ zero_extend 1) (bvmul ((_ zero_extend 32) |mlk_poly_tobytes_asm::requires::1::_cbmc_idx20!0@7#0|) (_ bv2 64))) (_ bv2 65)) (_ bv513 65))))))

; find_symbols
(declare-fun |mlk_poly_tobytes_asm::requires::1::_cbmc_idx20!0@9#0| () (_ BitVec 32))
; convert
; Converting var_no 24 with expr ID of =>
(define-fun B24 () Bool (=> (and true B12) (or (bvuge |mlk_poly_tobytes_asm::requires::1::_cbmc_idx20!0@9#0| (_ bv256 32)) (not (bvsge ((_ sign_extend 16) (select |symex_dynamic::dynamic_object$10#1| ((_ zero_extend 32) |mlk_poly_tobytes_asm::requires::1::_cbmc_idx20!0@9#0|))) (_ bv0 32))) (not (let ( (prod (bvmul ((_ sign_extend 64) ((_ zero_extend 32) |mlk_poly_tobytes_asm::requires::1::_cbmc_idx20!0@9#0|)) ((_ sign_extend 64) (_ bv2 64))) )) (or (bvsge prod (_ bv9223372036854775808 128)) (bvslt prod (bvneg (_ bv9223372036854775808 128)))))))))

; find_symbols
(declare-fun |mlk_poly_tobytes_asm::requires::1::_cbmc_idx20!0@12#0| () (_ BitVec 32))
; convert
; Converting var_no 25 with expr ID of =>
(define-fun B25 () Bool (=> (and true B12) (or (bvuge |mlk_poly_tobytes_asm::requires::1::_cbmc_idx20!0@12#0| (_ bv256 32)) (not (bvsge ((_ sign_extend 16) (select |symex_dynamic::dynamic_object$10#1| ((_ zero_extend 32) |mlk_poly_tobytes_asm::requires::1::_cbmc_idx20!0@12#0|))) (_ bv0 32))) (not (bvuge ((_ zero_extend 1) (bvmul ((_ zero_extend 32) |mlk_poly_tobytes_asm::requires::1::_cbmc_idx20!0@12#0|) (_ bv2 64))) (_ bv513 65))))))

; find_symbols
(declare-fun |mlk_poly_tobytes_asm::requires::1::_cbmc_idx20!0@16#0| () (_ BitVec 32))
; convert
; Converting var_no 26 with expr ID of =>
(define-fun B26 () Bool (=> (and true B12) (or (bvuge |mlk_poly_tobytes_asm::requires::1::_cbmc_idx20!0@16#0| (_ bv256 32)) (not (bvsge ((_ sign_extend 16) (select |symex_dynamic::dynamic_object$10#1| ((_ zero_extend 32) |mlk_poly_tobytes_asm::requires::1::_cbmc_idx20!0@16#0|))) (_ bv0 32))) (not (bvuge (bvadd ((_ zero_extend 1) (bvmul ((_ zero_extend 32) |mlk_poly_tobytes_asm::requires::1::_cbmc_idx20!0@16#0|) (_ bv2 64))) (_ bv2 65)) (_ bv513 65))))))

; find_symbols
(declare-fun |mlk_poly_tobytes_asm::requires::1::_cbmc_idx20!0@18#0| () (_ BitVec 32))
; convert
; Converting var_no 27 with expr ID of =>
(define-fun B27 () Bool (=> (and true B12) (or (bvuge |mlk_poly_tobytes_asm::requires::1::_cbmc_idx20!0@18#0| (_ bv256 32)) (and (bvsge ((_ sign_extend 16) (select |symex_dynamic::dynamic_object$10#1| ((_ zero_extend 32) |mlk_poly_tobytes_asm::requires::1::_cbmc_idx20!0@18#0|))) (_ bv0 32)) (not (bvsge ((_ sign_extend 16) (select |symex_dynamic::dynamic_object$10#1| ((_ zero_extend 32) |mlk_poly_tobytes_asm::requires::1::_cbmc_idx20!0@18#0|))) (_ bv4096 32)))))))

; set_to true
(assert (or (not B15) (not B16) (not B17) (not B18) (not B19) (not B20) (not B21) (not B22) (not B23) (not B24) (not B25) (not B26) (not B27)))

; convert
; Converting var_no 28 with expr ID of not
(define-fun B28 () Bool (not B27))

; convert
; Converting var_no 29 with expr ID of not
(define-fun B29 () Bool (not B21))

; convert
; Converting var_no 30 with expr ID of not
(define-fun B30 () Bool (not B22))

; convert
; Converting var_no 31 with expr ID of not
(define-fun B31 () Bool (not B23))

; convert
; Converting var_no 32 with expr ID of not
(define-fun B32 () Bool (not B24))

; convert
; Converting var_no 33 with expr ID of not
(define-fun B33 () Bool (not B25))

; convert
; Converting var_no 34 with expr ID of not
(define-fun B34 () Bool (not B26))

; convert
; Converting var_no 35 with expr ID of not
(define-fun B35 () Bool (not B15))

; convert
; Converting var_no 36 with expr ID of not
(define-fun B36 () Bool (not B16))

; convert
; Converting var_no 37 with expr ID of not
(define-fun B37 () Bool (not B17))

; convert
; Converting var_no 38 with expr ID of not
(define-fun B38 () Bool (not B18))

; convert
; Converting var_no 39 with expr ID of not
(define-fun B39 () Bool (not B19))

; convert
; Converting var_no 40 with expr ID of not
(define-fun B40 () Bool (not B20))

; set_to true
(assert (or B28 B29 B30 B31 B32 B33 B34 B35 B36 B37 B38 B39 B40))

(check-sat)


(exit)
; end of SMT2 file
